160 125 194 74 198 103 151 27 106 62 56 173 39 187 47 64 145 158 66 72 65 42 130 84 86 51 98 165 85 162 116 91 118 101 73 53 161 111 152 153 5 26 76 83 122 108 112 154 90 180 184 175 89 21 78 197 179 75 7 32 176 59 127 110 137 45 138 28 2 99 8 31 12 199 96 29 4 126 136 52 14 68 23 9 77 177 67 146 80 167 150 46 183 196 38 174 82 63 11 188 140 17 49 144 92 157 109 35 148 124 79 107 10 133 50 156 57 104 166 159 143 94 44 182 13 24 43 34 149 95 142 189 131 93 16 15 121 55 58 60 168 25 186 19 141 114 36 54 195 18 113 61 147 40 71 193 33 88 41 102 190 128 1 115 178 181 20 134 6 185 87 172 22 48 69 139 100 123 105 169 97 132 81 119 117 191 135 163 129 0 120 3 170 192 164 37 70 171 155 30